c Circuit verification problem 06
c Combinational circuit check
c Generated for SAT solver benchmarking
c Medium difficulty instance
p cnf 105 400
1 2 -3 0
-1 4 5 0
-2 -4 6 0
3 -5 -6 0
7 8 9 0
-7 -8 10 0
-9 11 12 0
-10 -11 13 0
14 15 -16 0
-14 17 18 0
-15 -17 19 0
16 -18 -19 0
20 21 22 0
-20 -21 23 0
-22 24 25 0
-23 -24 26 0
27 28 -29 0
-27 30 31 0
-28 -30 32 0
29 -31 -32 0
33 34 35 0
-33 -34 36 0
-35 37 38 0
-36 -37 39 0
40 41 -42 0
-40 43 44 0
-41 -43 45 0
42 -44 -45 0
46 47 48 0
-46 -47 49 0
-48 50 51 0
-49 -50 52 0
53 54 -55 0
-53 56 57 0
-54 -56 58 0
55 -57 -58 0
59 60 61 0
-59 -60 62 0
-61 63 64 0
-62 -63 65 0
66 67 -68 0
-66 69 70 0
-67 -69 71 0
68 -70 -71 0
72 73 74 0
-72 -73 75 0
-74 76 77 0
-75 -76 78 0
79 80 -81 0
-79 82 83 0
-80 -82 84 0
81 -83 -84 0
85 86 87 0
-85 -86 88 0
-87 89 90 0
-88 -89 91 0
92 93 -94 0
-92 95 96 0
-93 -95 97 0
94 -96 -97 0
98 99 100 0
-98 -99 101 0
-100 102 103 0
-101 -102 104 0
-103 -104 105 0
1 7 14 0
-2 8 -15 0
3 -9 16 0
-4 10 -17 0
5 -11 18 0
-6 12 -19 0
13 20 27 0
-14 -21 28 0
15 22 -29 0
-16 -23 30 0
17 24 -31 0
-18 -25 32 0
19 -26 33 0
-20 34 -35 0
21 -36 37 0
-22 38 -39 0
23 40 -41 0
-24 -42 43 0
25 44 -45 0
-26 -46 47 0
27 48 -49 0
-28 -50 51 0
29 52 53 0
-30 -54 -55 0
31 56 57 0
-32 -58 59 0
33 60 -61 0
-34 -62 63 0
35 64 -65 0
-36 -66 67 0
37 68 -69 0
-38 -70 71 0
39 72 -73 0
-40 -74 75 0
41 76 -77 0
-42 -78 79 0
43 80 -81 0
-44 -82 83 0
45 84 85 0
-46 -86 -87 0
47 88 89 0
-48 -90 91 0
49 92 -93 0
-50 -94 95 0
51 96 -97 0
-52 -98 99 0
53 100 -101 0
-54 -102 103 0
55 104 -105 0
1 -13 26 0
-2 14 -27 0
3 -15 28 0
-4 16 -29 0
5 -17 30 0
-6 18 -31 0
7 -19 32 0
-8 20 -33 0
9 -21 34 0
-10 22 -35 0
11 -23 36 0
-12 24 -37 0
13 -25 38 0
-1 26 -39 0
2 -27 40 0
-3 28 -41 0
4 -29 42 0
-5 30 -43 0
6 -31 44 0
-7 32 -45 0
8 -33 46 0
-9 34 -47 0
10 -35 48 0
-11 36 -49 0
12 -37 50 0
-13 38 -51 0
14 -39 52 0
-15 40 -53 0
16 -41 54 0
-17 42 -55 0
18 -43 56 0
-19 44 -57 0
20 -45 58 0
-21 46 -59 0
22 -47 60 0
-23 48 -61 0
24 -49 62 0
-25 50 -63 0
26 -51 64 0
-27 52 -65 0
28 -53 66 0
-29 54 -67 0
30 -55 68 0
-31 56 -69 0
32 -57 70 0
-33 58 -71 0
34 -59 72 0
-35 60 -73 0
36 -61 74 0
-37 62 -75 0
38 -63 76 0
-39 64 -77 0
40 -65 78 0
-41 66 -79 0
42 -67 80 0
-43 68 -81 0
44 -69 82 0
-45 70 -83 0
46 -71 84 0
-47 72 -85 0
48 -73 86 0
-49 74 -87 0
50 -75 88 0
-51 76 -89 0
52 -77 90 0
-53 78 -91 0
54 -79 92 0
-55 80 -93 0
56 -81 94 0
-57 82 -95 0
58 -83 96 0
-59 84 -97 0
60 -85 98 0
-61 86 -99 0
62 -87 100 0
-63 88 -101 0
64 -89 102 0
-65 90 -103 0
66 -91 104 0
-67 92 -105 0
68 -93 1 0
-69 94 -2 0
70 -95 3 0
-71 96 -4 0
72 -97 5 0
-73 98 -6 0
74 -99 7 0
-75 100 -8 0
76 -101 9 0
-77 102 -10 0
78 -103 11 0
-79 104 -12 0
80 -105 13 0
1 20 39 58 0
-2 -21 -40 -59 0
3 22 41 60 0
-4 -23 -42 -61 0
5 24 43 62 0
-6 -25 -44 -63 0
7 26 45 64 0
-8 -27 -46 -65 0
9 28 47 66 0
-10 -29 -48 -67 0
11 30 49 68 0
-12 -31 -50 -69 0
13 32 51 70 0
-14 -33 -52 -71 0
15 34 53 72 0
-16 -35 -54 -73 0
17 36 55 74 0
-18 -37 -56 -75 0
19 38 57 76 0
-1 -20 -39 -58 77 0
2 21 40 59 -78 0
-3 -22 -41 -60 79 0
4 23 42 61 -80 0
-5 -24 -43 -62 81 0
6 25 44 63 -82 0
-7 -26 -45 -64 83 0
8 27 46 65 -84 0
-9 -28 -47 -66 85 0
10 29 48 67 -86 0
-11 -30 -49 -68 87 0
12 31 50 69 -88 0
-13 -32 -51 -70 89 0
14 33 52 71 -90 0
-15 -34 -53 -72 91 0
16 35 54 73 -92 0
-17 -36 -55 -74 93 0
18 37 56 75 -94 0
-19 -38 -57 -76 95 0
77 -96 1 0
-78 97 -2 0
79 -98 3 0
-80 99 -4 0
81 -100 5 0
-82 101 -6 0
83 -102 7 0
-84 103 -8 0
85 -104 9 0
-86 105 -10 0
87 1 -11 0
-88 -2 12 0
89 3 -13 0
-90 -4 14 0
91 5 -15 0
-92 -6 16 0
93 7 -17 0
-94 -8 18 0
95 9 -19 0
-96 -10 20 0
97 11 -21 0
-98 -12 22 0
99 13 -23 0
-100 -14 24 0
101 15 -25 0
-102 -16 26 0
103 17 -27 0
-104 -18 28 0
105 19 -29 0
-1 -30 31 0
2 32 -33 0
-3 -34 35 0
4 36 -37 0
-5 -38 39 0
6 40 -41 0
-7 -42 43 0
8 44 -45 0
-9 -46 47 0
10 48 -49 0
-11 -50 51 0
12 52 -53 0
-13 -54 55 0
14 56 -57 0
-15 -58 59 0
16 60 -61 0
-17 -62 63 0
18 64 -65 0
-19 -66 67 0
20 68 -69 0
-21 -70 71 0
22 72 -73 0
-23 -74 75 0
24 76 -77 0
-25 -78 79 0
26 80 -81 0
-27 -82 83 0
28 84 -85 0
-29 -86 87 0
30 88 -89 0
-31 -90 91 0
32 92 -93 0
-33 -94 95 0
34 96 -97 0
-35 -98 99 0
36 100 -101 0
-37 -102 103 0
38 104 -105 0
-39 1 2 0
40 -3 -4 0
-41 5 6 0
42 -7 -8 0
-43 9 10 0
44 -11 -12 0
-45 13 14 0
46 -15 -16 0
-47 17 18 0
48 -19 -20 0
-49 21 22 0
50 -23 -24 0
-51 25 26 0
52 -27 -28 0
-53 29 30 0
54 -31 -32 0
-55 33 34 0
56 -35 -36 0
-57 37 38 0
58 -39 -40 0
-59 41 42 0
60 -43 -44 0
-61 45 46 0
62 -47 -48 0
-63 49 50 0
64 -51 -52 0
-65 53 54 0
66 -55 -56 0
-67 57 58 0
68 -59 -60 0
-69 61 62 0
70 -63 -64 0
-71 65 66 0
72 -67 -68 0
-73 69 70 0
74 -71 -72 0
-75 73 74 0
76 -75 -76 0
-77 77 78 0
78 -79 -80 0
-79 81 82 0
80 -83 -84 0
-81 85 86 0
82 -87 -88 0
-83 89 90 0
84 -91 -92 0
-85 93 94 0
86 -95 -96 0
-87 97 98 0
88 -99 -100 0
-89 101 102 0
90 -103 -104 0
-91 105 1 0